HUN,8,6,708
2,30,4,30,0,22,5,25,3,30,1,23
0,26,3,30,5,30,2,27,1,27,4,30
0,27,4,25,5,22,3,25,1,29,2,24
0,30,3,26,4,22,2,27,5,22,1,21
4,23,5,26,2,26,3,28,1,28,0,21
3,26,5,21,4,21,2,23,1,25,0,24
3,23,5,29,2,22,1,26,4,21,0,25
2,29,0,29,4,27,1,30,3,25,5,26
